
******************************************************************************
This program contains Ipopt, a library for large-scale nonlinear optimization.
 Ipopt is released as open source code under the Eclipse Public License (EPL).
         For more information visit http://projects.coin-or.org/Ipopt

This version of Ipopt was compiled from source code available at
    https://github.com/IDAES/Ipopt as part of the Institute for the Design of
    Advanced Energy Systems Process Systems Engineering Framework (IDAES PSE
    Framework) Copyright (c) 2018-2019. See https://github.com/IDAES/idaes-pse.

This version of Ipopt was compiled using HSL, a collection of Fortran codes
    for large-scale scientific computation.  All technical papers, sales and
    publicity material resulting from use of the HSL codes within IPOPT must
    contain the following acknowledgement:
        HSL, a collection of Fortran codes for large-scale scientific
        computation. See http://www.hsl.rl.ac.uk.
******************************************************************************

This is Ipopt version 3.13.2, running with linear solver ma27.

Number of nonzeros in equality constraint Jacobian...:      928
Number of nonzeros in inequality constraint Jacobian.:        0
Number of nonzeros in Lagrangian Hessian.............:      806

Total number of variables............................:      403
                     variables with only lower bounds:      124
                variables with lower and upper bounds:      217
                     variables with only upper bounds:        0
Total number of equality constraints.................:      402
Total number of inequality constraints...............:        0
        inequality constraints with only lower bounds:        0
   inequality constraints with lower and upper bounds:        0
        inequality constraints with only upper bounds:        0

iter    objective    inf_pr   inf_du lg(mu)  ||d||  lg(rg) alpha_du alpha_pr  ls
   0  0.0000000e+00 1.12e+00 4.44e-16  -1.0 0.00e+00    -  0.00e+00 0.00e+00   0
   1  9.2595422e-01 7.73e-01 2.24e+04  -1.0 1.57e+05    -  4.69e-01 3.72e-01h  1
   2  9.5573173e-01 7.66e-01 2.24e+04  -1.0 1.25e+05    -  5.60e-01 9.02e-03h  1
   3  6.5117139e+00 3.46e-01 2.17e+04  -1.0 1.49e+05    -  5.74e-01 6.80e-01h  1
   4  1.2720210e+01 5.12e-02 6.77e+03  -1.0 5.81e+04    -  8.67e-01 9.90e-01h  1
   5  1.3017649e+01 1.76e-03 7.82e+01  -1.0 2.28e+03    -  9.87e-01 9.90e-01h  1
   6  1.3030134e+01 1.92e-05 1.79e+03  -1.0 2.13e+02    -  9.86e-01 9.90e-01h  1
   7  1.3051810e+01 5.32e-05 1.08e+07  -1.0 1.49e+04    -  2.45e-01 3.09e-02f  6
   8  1.3188382e+01 6.33e-05 1.09e+05  -1.0 2.93e+03    -  9.90e-01 9.90e-01H  1
   9  1.3320731e+01 2.38e-05 1.55e+07  -1.0 2.79e+03    -  9.93e-01 9.90e-01H  1
iter    objective    inf_pr   inf_du lg(mu)  ||d||  lg(rg) alpha_du alpha_pr  ls
  10  1.3285524e+01 8.77e-07 5.18e+09  -1.0 7.40e+02    -  1.00e+00 9.90e-01H  1
In iteration 10, 31 Slacks too small, adjusting variable bounds
  11  1.3281738e+01 3.73e-07 5.18e+11  -1.0 7.97e+01    -  1.00e+00 9.90e-01h  1
  12  1.3281664e+01 1.07e-10 4.15e-03  -1.0 1.55e+00    -  1.00e+00 1.00e+00h  1
  13  1.3279626e+01 1.11e-07 5.18e+11  -9.0 8.89e+03    -  9.84e-01 4.78e-03f  8
  14  1.3277605e+01 2.21e-07 5.23e+11  -9.0 6.69e+03    -  9.89e-01 6.30e-03f  8
  15  1.3275599e+01 3.29e-07 5.19e+11  -9.0 5.93e+03    -  9.94e-01 7.05e-03f  8
  16  1.3274604e+01 3.55e-07 5.17e+11  -9.0 5.62e+03    -  1.00e+00 3.69e-03f  9
  17  1.3274109e+01 3.61e-07 5.16e+11  -9.0 5.47e+03    -  1.00e+00 1.89e-03f 10
  18  1.3023953e+01 3.76e-03 1.03e+10  -9.0 5.39e+03    -  1.00e+00 9.80e-01f  1
  19  1.3020942e+01 3.24e-06 2.22e-02  -9.0 5.33e+01    -  1.00e+00 1.00e+00h  1
iter    objective    inf_pr   inf_du lg(mu)  ||d||  lg(rg) alpha_du alpha_pr  ls
  20  1.3020942e+01 1.92e-11 9.79e-08  -9.0 1.97e-03    -  1.00e+00 1.00e+00h  1
  21  1.3020942e+01 3.85e-12 2.14e-12  -9.0 1.02e-06    -  1.00e+00 1.00e+00h  1

Number of Iterations....: 21

                                   (scaled)                 (unscaled)
Objective...............:   1.3020941949220742e+01    1.3020941949220742e+01
Dual infeasibility......:   2.1364839847988676e-12    2.1364839847988676e-12
Constraint violation....:   3.8529179846591433e-12    3.8529179846591433e-12
Complementarity.........:   9.0909091633485129e-10    9.0909091633485129e-10
Overall NLP error.......:   3.4389548170284435e-10    9.0909091633485129e-10


Number of objective function evaluations             = 90
Number of objective gradient evaluations             = 22
Number of equality constraint evaluations            = 90
Number of inequality constraint evaluations          = 0
Number of equality constraint Jacobian evaluations   = 22
Number of inequality constraint Jacobian evaluations = 0
Number of Lagrangian Hessian evaluations             = 21
Total CPU secs in IPOPT (w/o function evaluations)   =      0.051
Total CPU secs in NLP function evaluations           =      0.911

EXIT: Optimal Solution Found.
